JulietBench/Juliet_Based_Patch_Bench/FFmpeg/CWE-189-Numeric-Errors/CVE_2014_9602_93a5a16f136d095d23610f57bdad10ba88120fba/Resultxface_decode_frame_Snippet_patch2EQ.smt2
; benchmark generated from python API
(set-info :status unknown)
(declare-fun R () (_ BitVec 32))
(declare-fun rdi () (_ BitVec 64))
(declare-fun rsi () (_ BitVec 64))
(assert
 (let (($x76 (= (_ bv0 32) R)))
 (let (($x10 (= (_ bv4294967295 32) R)))
 (let ((?x6 ((_ extract 31 0) rdi)))
 (let ((?x11 (bvadd (_ bv1 32) ?x6)))
 (let (($x49 (bvslt (_ bv704 32) ?x11)))
 (let (($x85 (and $x49 $x10)))
 (let (($x16 (bvsge (_ bv704 32) ?x11)))
 (let ((?x8 ((_ extract 31 0) rsi)))
 (let (($x51 (bvsge (_ bv575 32) ?x8)))
 (let (($x81 (and $x51 $x16 $x76)))
 (let (($x72 (bvslt (_ bv575 32) ?x8)))
 (let (($x83 (and $x72 $x16 $x10)))
 (let (($x86 (or $x83 $x81 $x85)))
 (and $x86 $x76)))))))))))))))
(check-sat)
